* #variable= 15 #constraint= 1 #product= 24 sizeproduct= 48
min: +2 x1 x3 -2 x1 +2 x3 +2 x1 x7 -2 x7 +2 x2 x5 -2 x2 -2 x5 +2 x2 x10 -4 x10 -2 x3 x4 +2 x4 -2 x3 x12 -2 x3 x14 -2 x4 x5 +2 x4 x9 -2 x9 -2 x4 x15 +2 x5 x6 -2 x6 +2 x5 x8 -2 x8 +2 x6 x9 -2 x7 x8 +2 x7 x12 +2 x7 x13 +2 x8 x10 +2 x8 x15 +2 x9 x11 -2 x11 -2 x9 x12 +2 x10 x11 +2 x10 x12 -2 x13 x15 +2 x14 x15 ;
+1 x1 >= 0 ;
